Optimal - objective value 232.82000000
      0 x0_1                   1                    33.2
      5 x0_6                   1                       0
     22 x1_9                   1                       0
     41 x2_14                  1                       0
     52 x3_11                  1                       0
     58 x4_2                   1                   10.08
     82 x5_13                  1                       0
     93 x6_10                  1                       0
    109 x7_12                  1                       0
    112 x8_0                   1                       0
    131 x9_5                   1                   17.82
    144 x10_4                  1                       0
    161 x11_7                  1                       0
    168 x12_0                  1                    4.34
    185 x13_3                  1         3.26999999999999
    204 x14_8                  1                       0
    210 u1                     6                       0
    211 u2                    18                       0
    212 u3                    29                       0
    213 u4                    14                       0
    214 u5                    19                       0
    215 u6                     4                       0
    216 u7                    39                       0
    217 u8       25.9999999999999                       0
    218 u9       14.0000000000001                       0
    219 u10      7.99999999999999                       0
    220 u11                   35                       0
    221 u12                   45                       0
    222 u13                   25                       0
    223 u14                   22                       0
